Data path: /scratch/opt/lxu/CFLG/benchmarks/random_B
Instance: r_40_0.1_84.txt
Result path: /scratch/opt/lxu/CFLG/results/random_B
Solver: Gurobi
Time limit: 7200
Formulation: LEFPA
Cover: Small
julia --project=. src/main.jl /scratch/opt/lxu/CFLG/benchmarks/random_B r_40_0.1_84.txt /scratch/opt/lxu/CFLG/results/random_B Gurobi 7200 LEFPA Small
The latest version of Julia in the `release` channel is 1.11.5+0.x64.linux.gnu. You currently have `1.11.4+0.x64.linux.gnu` installed. Run:

  juliaup update

in your terminal shell to install Julia 1.11.5+0.x64.linux.gnu and update the `release` channel to that version.
/scratch/opt/lxu/CFLG/benchmarks/random_B Gurobi 7200.0 /scratch/opt/lxu/CFLG/results/random_B r_40_0.1_84.txt LEFPA Small
/scratch/opt/lxu/CFLG/benchmarks/random_B/r_40_0.1_84.txt

 read graph
data loaded


after absorb:36 40

max_piece:12
problem_graph/original graph: node: 40/40 edge: 84/84 dlt: 0.15172311284466455 break_avg_len: 0.6068924513786582 break_max_len: 1.7728588366852929Vbar/V, Ebar/E(37, 40, 81, 84)
(2, 14)(2, 30)(2, 18)(2, 4)(3, 33)(3, 9)(3, 21)(2, 5)(5, 18)(6, 29)(6, 30)(6, 23)(6, 24)(6, 11)(7, 23)(7, 10)(8, 29)(8, 21)(9, 12)(9, 28)(2, 9)(9, 20)(9, 21)(9, 10)(11, 29)(11, 37)(30, 37)(11, 28)(8, 11)(12, 30)(12, 21)(13, 23)(13, 31)(14, 28)(18, 28)(18, 19)(5, 19)(22, 28)(22, 30)(22, 32)(13, 22)(11, 22)(14, 24)(24, 33)(25, 32)(19, 25)(4, 25)(9, 25)(26, 27)(26, 28)(25, 26)(26, 31)(26, 38)(35, 38)(18, 27)(4, 27)(6, 27)(11, 27)(28, 29)(7, 29)(23, 31)(21, 31)(28, 32)(16, 33)(20, 33)(2, 34)(16, 34)(33, 39)(34, 39)(4, 34)(30, 35)(2, 35)(4, 35)(7, 40)(35, 40)(10, 35)(23, 36)(25, 36)(32, 36)(6, 36)(20, 36)(Dict(5 => 2.0, 9 => 3.0, 19 => 3.0), [19, 5, 9], 40, 84)Set parameter TokenServer to value "solice01.zib.de"
Set parameter Threads to value 1
Set parameter OutputFlag to value 1
Gurobi Optimizer version 12.0.1 build v12.0.1rc0 (linux64 - "Debian GNU/Linux 12 (bookworm)")

CPU model: Intel(R) Xeon(R) Gold 5122 CPU @ 3.60GHz, instruction set [SSE2|AVX|AVX2|AVX512]
Thread count: 8 physical cores, 16 logical processors, using up to 1 threads

Non-default parameters:
Threads  1

Optimize a model with 124 rows, 252 columns and 420 nonzeros
Model fingerprint: 0x6c3958e0
Coefficient statistics:
  Matrix range     [1e+00, 1e+00]
  Objective range  [1e+00, 1e+00]
  Bounds range     [1e+00, 1e+00]
  RHS range        [1e+00, 1e+00]
Presolve removed 124 rows and 252 columns
Presolve time: 0.00s
Presolve: All rows and columns removed
Iteration    Objective       Primal Inf.    Dual Inf.      Time
       0    3.0000000e+00   0.000000e+00   0.000000e+00      0s

Solved in 0 iterations and 0.00 seconds (0.00 work units)
Optimal objective  3.000000000e+00

User-callback calls 35, time in user-callback 0.01 sec
elapsed CPU time: 1.745059 seconds
Set parameter TokenServer to value "solice01.zib.de"
Set parameter Threads to value 1
Set parameter OutputFlag to value 1
Set parameter MIPGap to value 0.0001
Set parameter MIPGapAbs to value 0.999998
Set parameter TimeLimit to value 7198.254941

 more cuts: false 0.15172311284466455 false
is_attach:trueformulation:LEFPA0 84 0

 model loaded

Gurobi Optimizer version 12.0.1 build v12.0.1rc0 (linux64 - "Debian GNU/Linux 12 (bookworm)")

CPU model: Intel(R) Xeon(R) Gold 5122 CPU @ 3.60GHz, instruction set [SSE2|AVX|AVX2|AVX512]
Thread count: 8 physical cores, 16 logical processors, using up to 1 threads

Non-default parameters:
TimeLimit  7198.254941
MIPGapAbs  0.999998
Threads  1

Optimize a model with 907 rows, 697 columns and 2334 nonzeros
Model fingerprint: 0x4dcfe415
Variable types: 208 continuous, 489 integer (489 binary)
Coefficient statistics:
  Matrix range     [6e-03, 2e+00]
  Objective range  [1e+00, 1e+00]
  Bounds range     [6e-03, 2e+00]
  RHS range        [1e-06, 2e+00]
Found heuristic solution: objective 86.0000000
Presolve removed 899 rows and 690 columns
Presolve time: 0.02s
Presolved: 8 rows, 7 columns, 20 nonzeros
Found heuristic solution: objective 84.0000000
Variable types: 3 continuous, 4 integer (4 binary)

Root relaxation: objective 8.300000e+01, 0 iterations, 0.00 seconds (0.00 work units)

    Nodes    |    Current Node    |     Objective Bounds      |     Work
 Expl Unexpl |  Obj  Depth IntInf | Incumbent    BestBd   Gap | It/Node Time

*    0     0               0      83.0000000   83.00000  0.00%     -    0s

Explored 1 nodes (0 simplex iterations) in 0.03 seconds (0.00 work units)
Thread count was 1 (of 16 available processors)

Solution count 3: 83 84 86 

Optimal solution found (tolerance 1.00e-04)
Warning: max constraint violation (1.0000e-06) exceeds tolerance
Best objective 8.300000000000e+01, best bound 8.300000000000e+01, gap 0.0000%

User-callback calls 971, time in user-callback 0.00 sec

 sepatime0 0 0
83.0Stat(MathOptInterface.OPTIMAL, 83.0, 83.0, 0.0, 0.0, 1.745059, 0.028614044189453125, 1, Main.CFLG.LEFPA, "", #undef)
